;; translated from ./ctigar/dillig07.c.vmt
;; original benchmark available at: https://es-static.fbk.eu/people/griggio/ic3ia/index.html
;; author: Alberto Griggio <griggio@fbk.eu>
(set-logic HORN)
(declare-fun state (Bool Bool Bool Bool Int Int Int) Bool)
(assert (forall ((|.s.0| Bool) (|.s.2| Bool) (|.s.1| Bool) (|.s.0.next| Bool) (|.s.1.next| Bool) (|.s.2.next| Bool) (|.s.3.next| Bool) (|main.i.next| Int) (|main.i| Int) (|main.j.next| Int) (|main.j| Int) (|main.n.next| Int) (|main.n| Int) (|.s.3| Bool)) (=> (let ((.def_17 (not .s.3)))
(let ((.def_14 (not .s.2)))
(let ((.def_10 (not .s.1)))
(let ((.def_12 (and .def_10 .s.0)))
(let ((.def_15 (and .def_12 .def_14)))
(let ((.def_18 (and .def_15 .def_17)))
.def_18)))))) (state |.s.1| |.s.0| |.s.2| |.s.3| |main.i| |main.j| |main.n|))))
(assert (forall ((|.s.0| Bool) (|.s.2| Bool) (|.s.1| Bool) (|.s.0.next| Bool) (|.s.1.next| Bool) (|.s.2.next| Bool) (|.s.3.next| Bool) (|main.i.next| Int) (|main.i| Int) (|main.j.next| Int) (|main.j| Int) (|main.n.next| Int) (|main.n| Int) (|.s.3| Bool)) (=> (and (state |.s.1| |.s.0| |.s.2| |.s.3| |main.i| |main.j| |main.n|) (let ((.def_44 (not .s.0)))
(let ((.def_10 (not .s.1)))
(let ((.def_68 (and .def_10 .def_44)))
(let ((.def_14 (not .s.2)))
(let ((.def_69 (and .def_14 .def_68)))
(let ((.def_17 (not .s.3)))
(let ((.def_166 (and .def_17 .def_69)))
(let ((.def_167 (not .def_166)))
(let ((.def_51 (not .s.0.next)))
(let ((.def_50 (not .s.1.next)))
(let ((.def_52 (and .def_50 .def_51)))
(let ((.def_27 (not .s.2.next)))
(let ((.def_53 (and .def_27 .def_52)))
(let ((.def_49 (not .s.3.next)))
(let ((.def_54 (and .def_49 .def_53)))
(let ((.def_33 (= main.i main.i.next)))
(let ((.def_55 (and .def_33 .def_54)))
(let ((.def_37 (= main.j main.j.next)))
(let ((.def_56 (and .def_37 .def_55)))
(let ((.def_41 (= main.n main.n.next)))
(let ((.def_57 (and .def_41 .def_56)))
(let ((.def_168 (or .def_57 .def_167)))
(let ((.def_61 (and .s.1.next .def_51)))
(let ((.def_62 (and .def_27 .def_61)))
(let ((.def_161 (and .def_49 .def_62)))
(let ((.def_160 (= main.j.next 0)))
(let ((.def_162 (and .def_160 .def_161)))
(let ((.def_159 (= main.i.next 0)))
(let ((.def_163 (and .def_159 .def_162)))
(let ((.def_164 (and .def_41 .def_163)))
(let ((.def_12 (and .def_10 .s.0)))
(let ((.def_15 (and .def_12 .def_14)))
(let ((.def_18 (and .def_15 .def_17)))
(let ((.def_158 (not .def_18)))
(let ((.def_165 (or .def_158 .def_164)))
(let ((.def_169 (and .def_165 .def_168)))
(let ((.def_146 (<= 0 main.n)))
(let ((.def_45 (and .s.1 .def_44)))
(let ((.def_46 (and .def_14 .def_45)))
(let ((.def_144 (and .def_17 .def_46)))
(let ((.def_155 (and .def_144 .def_146)))
(let ((.def_156 (not .def_155)))
(let ((.def_92 (and .s.2.next .def_52)))
(let ((.def_93 (and .def_49 .def_92)))
(let ((.def_94 (and .def_33 .def_93)))
(let ((.def_95 (and .def_37 .def_94)))
(let ((.def_96 (and .def_41 .def_95)))
(let ((.def_157 (or .def_96 .def_156)))
(let ((.def_170 (and .def_157 .def_169)))
(let ((.def_25 (and .s.0.next .s.1.next)))
(let ((.def_28 (and .def_25 .def_27)))
(let ((.def_150 (and .def_28 .def_49)))
(let ((.def_151 (and .def_33 .def_150)))
(let ((.def_152 (and .def_37 .def_151)))
(let ((.def_153 (and .def_41 .def_152)))
(let ((.def_147 (not .def_146)))
(let ((.def_148 (and .def_144 .def_147)))
(let ((.def_149 (not .def_148)))
(let ((.def_154 (or .def_149 .def_153)))
(let ((.def_171 (and .def_154 .def_170)))
(let ((.def_19 (and .s.1 .s.0)))
(let ((.def_20 (and .def_14 .def_19)))
(let ((.def_141 (and .def_17 .def_20)))
(let ((.def_142 (not .def_141)))
(let ((.def_143 (or .def_57 .def_142)))
(let ((.def_172 (and .def_143 .def_171)))
(let ((.def_136 (and .s.3.next .def_53)))
(let ((.def_137 (and .def_33 .def_136)))
(let ((.def_138 (and .def_37 .def_137)))
(let ((.def_139 (and .def_41 .def_138)))
(let ((.def_124 (<= main.n main.i)))
(let ((.def_122 (and .s.2 .def_68)))
(let ((.def_123 (and .def_17 .def_122)))
(let ((.def_134 (and .def_123 .def_124)))
(let ((.def_135 (not .def_134)))
(let ((.def_140 (or .def_135 .def_139)))
(let ((.def_173 (and .def_140 .def_172)))
(let ((.def_82 (and .s.0.next .def_50)))
(let ((.def_128 (and .s.2.next .def_82)))
(let ((.def_129 (and .def_49 .def_128)))
(let ((.def_130 (and .def_33 .def_129)))
(let ((.def_131 (and .def_37 .def_130)))
(let ((.def_132 (and .def_41 .def_131)))
(let ((.def_125 (not .def_124)))
(let ((.def_126 (and .def_123 .def_125)))
(let ((.def_127 (not .def_126)))
(let ((.def_133 (or .def_127 .def_132)))
(let ((.def_174 (and .def_133 .def_173)))
(let ((.def_116 (and .s.2.next .def_61)))
(let ((.def_117 (and .def_49 .def_116)))
(let ((.def_113 (* (- 1) main.i.next)))
(let ((.def_114 (+ main.i .def_113)))
(let ((.def_115 (= .def_114 (- 1))))
(let ((.def_118 (and .def_115 .def_117)))
(let ((.def_119 (and .def_37 .def_118)))
(let ((.def_120 (and .def_41 .def_119)))
(let ((.def_110 (and .def_12 .s.2)))
(let ((.def_111 (and .def_17 .def_110)))
(let ((.def_112 (not .def_111)))
(let ((.def_121 (or .def_112 .def_120)))
(let ((.def_175 (and .def_121 .def_174)))
(let ((.def_104 (and .def_25 .s.2.next)))
(let ((.def_105 (and .def_49 .def_104)))
(let ((.def_101 (* (- 1) main.j.next)))
(let ((.def_102 (+ main.j .def_101)))
(let ((.def_103 (= .def_102 (- 1))))
(let ((.def_106 (and .def_103 .def_105)))
(let ((.def_107 (and .def_33 .def_106)))
(let ((.def_108 (and .def_41 .def_107)))
(let ((.def_98 (and .s.2 .def_45)))
(let ((.def_99 (and .def_17 .def_98)))
(let ((.def_100 (not .def_99)))
(let ((.def_109 (or .def_100 .def_108)))
(let ((.def_176 (and .def_109 .def_175)))
(let ((.def_89 (and .s.2 .def_19)))
(let ((.def_90 (and .def_17 .def_89)))
(let ((.def_91 (not .def_90)))
(let ((.def_97 (or .def_91 .def_96)))
(let ((.def_177 (and .def_97 .def_176)))
(let ((.def_83 (and .def_27 .def_82)))
(let ((.def_84 (and .s.3.next .def_83)))
(let ((.def_85 (and .def_33 .def_84)))
(let ((.def_86 (and .def_37 .def_85)))
(let ((.def_87 (and .def_41 .def_86)))
(let ((.def_73 (* (- 1) main.n)))
(let ((.def_74 (+ main.j .def_73)))
(let ((.def_75 (<= 1 .def_74)))
(let ((.def_79 (not .def_75)))
(let ((.def_70 (and .s.3 .def_69)))
(let ((.def_80 (and .def_70 .def_79)))
(let ((.def_81 (not .def_80)))
(let ((.def_88 (or .def_81 .def_87)))
(let ((.def_178 (and .def_88 .def_177)))
(let ((.def_76 (and .def_70 .def_75)))
(let ((.def_77 (not .def_76)))
(let ((.def_30 (and .def_28 .s.3.next)))
(let ((.def_34 (and .def_30 .def_33)))
(let ((.def_38 (and .def_34 .def_37)))
(let ((.def_42 (and .def_38 .def_41)))
(let ((.def_78 (or .def_42 .def_77)))
(let ((.def_179 (and .def_78 .def_178)))
(let ((.def_63 (and .s.3.next .def_62)))
(let ((.def_64 (and .def_33 .def_63)))
(let ((.def_65 (and .def_37 .def_64)))
(let ((.def_66 (and .def_41 .def_65)))
(let ((.def_59 (and .def_15 .s.3)))
(let ((.def_60 (not .def_59)))
(let ((.def_67 (or .def_60 .def_66)))
(let ((.def_180 (and .def_67 .def_179)))
(let ((.def_47 (and .s.3 .def_46)))
(let ((.def_48 (not .def_47)))
(let ((.def_58 (or .def_48 .def_57)))
(let ((.def_181 (and .def_58 .def_180)))
(let ((.def_21 (and .s.3 .def_20)))
(let ((.def_22 (not .def_21)))
(let ((.def_43 (or .def_22 .def_42)))
(let ((.def_182 (and .def_43 .def_181)))
.def_182)))))))))))))))))))))))))))))))))))))))))))))))))))))))))))))))))))))))))))))))))))))))))))))))))))))))))))))))))))))))))))))))))))))))))))))))))))))))))))))) (state |.s.1.next| |.s.0.next| |.s.2.next| |.s.3.next| |main.i.next| |main.j.next| |main.n.next|))))
(assert (forall ((|.s.0| Bool) (|.s.2| Bool) (|.s.1| Bool) (|.s.0.next| Bool) (|.s.1.next| Bool) (|.s.2.next| Bool) (|.s.3.next| Bool) (|main.i.next| Int) (|main.i| Int) (|main.j.next| Int) (|main.j| Int) (|main.n.next| Int) (|main.n| Int) (|.s.3| Bool)) (=> (state |.s.1| |.s.0| |.s.2| |.s.3| |main.i| |main.j| |main.n|) (let ((.def_19 (and .s.1 .s.0)))
(let ((.def_14 (not .s.2)))
(let ((.def_20 (and .def_14 .def_19)))
(let ((.def_21 (and .s.3 .def_20)))
(let ((.def_22 (not .def_21)))
.def_22))))))))
(check-sat)
